&CONTROL
                       title = '2.YBCO_STO_PBE_from_GBRV' ,
		       restart_mode = 'from_scratch' ,
                 calculation = 'vc-relax' ,
                  wf_collect = .true. ,
                      outdir = '../outdir/' ,
                      wfcdir = '../temp/' ,
                  pseudo_dir = '../pbe/' ,
                      prefix = '2.test_1_2' ,
                     disk_io = 'default' ,
                   verbosity = 'default' ,
                      iprint = 10 ,
               etot_conv_thr = 1.0d-6 ,
               forc_conv_thr = 1.0d-6 ,
                       nstep = 400 ,
                     tstress = .false. ,
                     tprnfor = .false. ,
 /
 &SYSTEM
                       ibrav = 8,
                           A = 3.9298 ,
                           B = 3.9298 ,
                           C = 77.117 , !62.117199 + 15
                       cosAB = 0 ,
                       cosAC = 0 ,
                       cosBC = 0 ,
                         nat = 75,
                        ntyp = 6,
                     ecutwfc = 40 ,
                     ecutrho = 200 ,
		     !nbnd = 105 ,
		     occupations = 'smearing' ,
		     degauss = 0.01 ,
 /
 &ELECTRONS
            electron_maxstep = 400,
             diagonalization = 'david' ,
	     mixing_beta = 0.15 ,
	     mixing_mode = 'local-TF' ,
	     mixing_ndim = 8 ,
	     conv_thr = 2e-5 ,
 /
 &IONS
                ion_dynamics = 'damp' ,
               ion_positions = 'default' ,
 /
 &CELL
               cell_dynamics = 'damp-pr' ,
                 cell_factor = 1.5 ,
                 cell_dofree = 'z' ,
 /
ATOMIC_SPECIES
   Ba  137.32700  ba_pbe_v1.uspp.F.UPF 
    Y   88.90585  y_pbe_v1.uspp.F.UPF 
   Cu   63.54600  cu_pbe_v1.uspp.F.UPF 
    O   15.99940  o_pbe_v1.01.uspp.F.UPF 
   Sr   87.62000  sr_pbe_v1.uspp.F.UPF 
   Ti   47.88000  ti_pbe_v1.uspp.F.UPF 
ATOMIC_POSITIONS angstrom
Sr      1.9649000000     1.9649000000     1.8631781020      0.0000000000     0.0000000000 1
Sr      1.9649000000     1.9649000000     5.8570961090      0.0000000000     0.0000000000 1
Sr      1.9649000000     1.9649000000     9.7788390600      0.0000000000     0.0000000000 1
Sr      1.9649000000     1.9649000000    13.6877363850      0.0000000000     0.0000000000 1
Ti      0.0000000000     0.0000000000     0.0326698740      0.0000000000     0.0000000000 1
Ti      0.0000000000     0.0000000000    15.6705635880      0.0000000000     0.0000000000 1
Ti      0.0000000000     0.0000000000     3.9242872170      0.0000000000     0.0000000000 1
Ti      0.0000000000     0.0000000000     7.8373198750      0.0000000000     0.0000000000 1
Ti      0.0000000000     0.0000000000    11.7471268620      0.0000000000     0.0000000000 1
O      1.9649000000     0.0000000000    -0.1112871590      0.0000000000     0.0000000000 1
O      1.9649000000     0.0000000000    15.5505044970      0.0000000000     0.0000000000 1
O      1.9649000000     0.0000000000     3.8144222580      0.0000000000     0.0000000000 1
O      1.9649000000     0.0000000000     7.7346156140      0.0000000000     0.0000000000 1
O      1.9649000000     0.0000000000    11.6426411280      0.0000000000     0.0000000000 1
O      0.0000000000     1.9649000000    -0.1112607120      0.0000000000     0.0000000000 1
O      0.0000000000     1.9649000000    15.5497298330      0.0000000000     0.0000000000 1
O      0.0000000000     1.9649000000     3.8143743430      0.0000000000     0.0000000000 1
O      0.0000000000     1.9649000000     7.7346104240      0.0000000000     0.0000000000 1
O      0.0000000000     1.9649000000    11.6425841670      0.0000000000     0.0000000000 1
O      0.0000000000     0.0000000000     1.8439167290      0.0000000000     0.0000000000 1
O      0.0000000000     0.0000000000     5.7779845560      0.0000000000     0.0000000000 1
O      0.0000000000     0.0000000000     9.6955323040      0.0000000000     0.0000000000 1
O      0.0000000000     0.0000000000    13.6065608560      0.0000000000     0.0000000000 1
Ba      1.9649000000     1.9649000000    17.7087852350      0.0000000000     0.0000000000 1
Ba      1.9649000000     1.9649000000    29.3431890610      0.0000000000     0.0000000000 1
Ba      1.9649000000     1.9649000000    40.9737552830      0.0000000000     0.0000000000 1
Ba      1.9649000000     1.9649000000    52.6032173920      0.0000000000     0.0000000000 1
Ba      1.9649000000     1.9649000000    25.1079141790      0.0000000000     0.0000000000 1
Ba      1.9649000000     1.9649000000    36.7399589330      0.0000000000     0.0000000000 1
Ba      1.9649000000     1.9649000000    48.3703418230      0.0000000000     0.0000000000 1
Ba      1.9649000000     1.9649000000    60.0641214920      0.0000000000     0.0000000000 1
Y      1.9649000000     1.9649000000    21.4138522250      0.0000000000     0.0000000000 1
Y      1.9649000000     1.9649000000    33.0415192070      0.0000000000     0.0000000000 1
Y      1.9649000000     1.9649000000    44.6718242870      0.0000000000     0.0000000000 1
Y      1.9649000000     1.9649000000    56.3108390140      0.0000000000     0.0000000000 1
Cu      0.0000000000     0.0000000000    62.0384758370      0.0000000000     0.0000000000 1
Cu      0.0000000000     0.0000000000    27.2264919980      0.0000000000     0.0000000000 1
Cu      0.0000000000     0.0000000000    38.8567229750      0.0000000000     0.0000000000 1
Cu      0.0000000000     0.0000000000    50.4881336130      0.0000000000     0.0000000000 1
Cu      0.0000000000     0.0000000000    19.7499078420      0.0000000000     0.0000000000 1
Cu      0.0000000000     0.0000000000    31.3469728580      0.0000000000     0.0000000000 1
Cu      0.0000000000     0.0000000000    42.9777892220      0.0000000000     0.0000000000 1
Cu      0.0000000000     0.0000000000    54.6130597530      0.0000000000     0.0000000000 1
Cu      0.0000000000     0.0000000000    23.1069895180      0.0000000000     0.0000000000 1
Cu      0.0000000000     0.0000000000    34.7352091650      0.0000000000     0.0000000000 1
Cu      0.0000000000     0.0000000000    46.3657867010      0.0000000000     0.0000000000 1
Cu      0.0000000000     0.0000000000    58.0057132260      0.0000000000     0.0000000000 1
O      0.0000000000     0.0000000000    17.5499697780      0.0000000000     0.0000000000 1
O      0.0000000000     0.0000000000    29.1077900130      0.0000000000     0.0000000000 1
O      0.0000000000     0.0000000000    40.7372737220      0.0000000000     0.0000000000 1
O      0.0000000000     0.0000000000    52.3718582580      0.0000000000     0.0000000000 1
O      0.0000000000     0.0000000000    25.3482216340      0.0000000000     0.0000000000 1
O      0.0000000000     0.0000000000    36.9760677760      0.0000000000     0.0000000000 1
O      0.0000000000     0.0000000000    48.6076599400      0.0000000000     0.0000000000 1
O      0.0000000000     0.0000000000    60.1529907150      0.0000000000     0.0000000000 1
O      1.9649000000     0.0000000000    20.0442316230      0.0000000000     0.0000000000 1
O      1.9649000000     0.0000000000    31.6202393720      0.0000000000     0.0000000000 1
O      1.9649000000     0.0000000000    43.2505157260      0.0000000000     0.0000000000 1
O      1.9649000000     0.0000000000    54.8948940950      0.0000000000     0.0000000000 1
O      1.9649000000     0.0000000000    22.8630351970      0.0000000000     0.0000000000 1
O      1.9649000000     0.0000000000    34.4622264190      0.0000000000     0.0000000000 1
O      1.9649000000     0.0000000000    46.0928640110      0.0000000000     0.0000000000 1
O      1.9649000000     0.0000000000    57.7454137370      0.0000000000     0.0000000000 1
O      0.0000000000     1.9649000000    20.0163700660      0.0000000000     0.0000000000 1
O      0.0000000000     1.9649000000    31.6296053600      0.0000000000     0.0000000000 1
O      0.0000000000     1.9649000000    43.2594966510      0.0000000000     0.0000000000 1
O      0.0000000000     1.9649000000    54.9108746400      0.0000000000     0.0000000000 1
O      0.0000000000     1.9649000000    22.8313736680      0.0000000000     0.0000000000 1
O      0.0000000000     1.9649000000    34.4535933520      0.0000000000     0.0000000000 1
O      0.0000000000     1.9649000000    46.0842373730      0.0000000000     0.0000000000 1
O      0.0000000000     1.9649000000    57.7437743850      0.0000000000     0.0000000000 1
O      0.0000000000     1.9649000000    62.1924220930      0.0000000000     0.0000000000 1
O      0.0000000000     1.9649000000    27.2313581400      0.0000000000     0.0000000000 1
O      0.0000000000     1.9649000000    38.8565326970      0.0000000000     0.0000000000 1
O      0.0000000000     1.9649000000    50.4899137390      0.0000000000     0.0000000000 1
K_POINTS {automatic}
  6 6 2   1 1 1 
