&CONTROL
                       title = 'YBCO_STO_PBE_from_GBRV' ,
		       restart_mode = 'restart' ,
                 calculation = 'vc-relax' ,
                  wf_collect = .true. ,
                      outdir = '../outdir/' ,
                      wfcdir = '../temp/' ,
                  pseudo_dir = '../pbe/' ,
                      prefix = 'test_1_2' ,
                     disk_io = 'default' ,
                   verbosity = 'default' ,
                      iprint = 10 ,
               etot_conv_thr = 1.0d-6 ,
               forc_conv_thr = 1.0d-6 ,
                       nstep = 400 ,
                     tstress = .false. ,
                     tprnfor = .false. ,
 /
 &SYSTEM
                       ibrav = 8,
                           A = 3.944 ,
                           B = 3.944 ,
                           C = 78.144 , !63.144 + 15
                       cosAB = 0 ,
                       cosAC = 0 ,
                       cosBC = 0 ,
                         nat = 75,
                        ntyp = 6,
                     ecutwfc = 40 ,
                     ecutrho = 200 ,
		     !nbnd = 105 ,
		     occupations = 'smearing' ,
		     degauss = 0.01 ,
 /
 &ELECTRONS
            electron_maxstep = 400,
             diagonalization = 'david' ,
	     mixing_beta = 0.15 ,
	     mixing_mode = 'local-TF' ,
	     mixing_ndim = 8 ,
	     conv_thr = 2e-5 ,
 /
 &IONS
                ion_dynamics = 'damp' ,
               ion_positions = 'default' ,
 /
 &CELL
               cell_dynamics = 'damp-pr' ,
                 cell_factor = 1.5 ,
                 cell_dofree = 'z' ,
 /
ATOMIC_SPECIES
   Ba  137.32700  ba_pbe_v1.uspp.F.UPF 
    Y   88.90585  y_pbe_v1.uspp.F.UPF 
   Cu   63.54600  cu_pbe_v1.uspp.F.UPF 
    O   15.99940  o_pbe_v1.01.uspp.F.UPF 
   Sr   87.62000  sr_pbe_v1.uspp.F.UPF 
   Ti   47.88000  ti_pbe_v1.uspp.F.UPF 
ATOMIC_POSITIONS angstrom
Ba    1.972000    1.972000   25.851088 0 0 1
Ba    1.972000    1.972000   37.693089 0 0 1
Ba    1.972000    1.972000   49.535088 0 0 1
Ba    1.972000    1.972000   61.377087 0 0 1
Ba    1.972000    1.972000   21.516912 0 0 1
Ba    1.972000    1.972000   33.358913 0 0 1
Ba    1.972000    1.972000   45.200912 0 0 1
Ba    1.972000    1.972000   57.042912 0 0 1
 Y    1.972000    1.972000   17.763000 0 0 1
 Y    1.972000    1.972000   29.605000 0 0 1
 Y    1.972000    1.972000   41.446999 0 0 1
 Y    1.972000    1.972000   53.289001 0 0 1
Cu    0.000000    0.000000   23.684000 0 0 1
Cu    0.000000    0.000000   35.526001 0 0 1
Cu    0.000000    0.000000   47.368000 0 0 1
Cu    0.000000    0.000000   59.209999 0 0 1
Cu    0.000000    0.000000   16.037621 0 0 1
Cu    0.000000    0.000000   27.879622 0 0 1
Cu    0.000000    0.000000   39.721622 0 0 1
Cu    0.000000    0.000000   51.563622 0 0 1
Cu    0.000000    0.000000   63.405621 0 0 1
Cu    0.000000    0.000000   19.488379 0 0 1
Cu    0.000000    0.000000   31.330379 0 0 1
Cu    0.000000    0.000000   43.172379 0 0 1
Cu    0.000000    0.000000   55.014378 0 0 1
 O    0.000000    0.000000   25.569246 0 0 1
 O    0.000000    0.000000   37.411247 0 0 1
 O    0.000000    0.000000   49.253250 0 0 1
 O    0.000000    0.000000   61.095249 0 0 1
 O    0.000000    0.000000   21.798754 0 0 1
 O    0.000000    0.000000   33.640755 0 0 1
 O    0.000000    0.000000   45.482754 0 0 1
 O    0.000000    0.000000   57.324753 0 0 1
 O    1.972000    0.000000   16.299328 0 0 1
 O    1.972000    0.000000   28.141329 0 0 1
 O    1.972000    0.000000   39.983330 0 0 1
 O    1.972000    0.000000   51.825329 0 0 1
 O    1.972000    0.000000   63.667328 0 0 1
 O    1.972000    0.000000   19.226671 0 0 1
 O    1.972000    0.000000   31.068672 0 0 1
 O    1.972000    0.000000   42.910671 0 0 1
 O    1.972000    0.000000   54.752670 0 0 1
 O    0.000000    1.972000   16.309986 0 0 1
 O    0.000000    1.972000   28.151987 0 0 1
 O    0.000000    1.972000   39.993988 0 0 1
 O    0.000000    1.972000   51.835983 0 0 1
 O    0.000000    1.972000   63.677982 0 0 1
 O    0.000000    1.972000   19.216013 0 0 1
 O    0.000000    1.972000   31.058014 0 0 1
 O    0.000000    1.972000   42.900013 0 0 1
 O    0.000000    1.972000   54.742012 0 0 1
 O    0.000000    1.972000   23.684000 0 0 1
 O    0.000000    1.972000   35.526001 0 0 1
 O    0.000000    1.972000   47.368000 0 0 1
 O    0.000000    1.972000   59.209999 0 0 1
Sr    1.972000    1.972000    1.972000 0 0 1
Sr    1.972000    1.972000    5.916000 0 0 1
Sr    1.972000    1.972000    9.860000 0 0 1
Sr    1.972000    1.972000   13.804000 0 0 1
Ti    0.000000    0.000000    0.000000 0 0 1
Ti    0.000000    0.000000    3.944000 0 0 1
Ti    0.000000    0.000000    7.888000 0 0 1
Ti    0.000000    0.000000   11.832000 0 0 1
 O    1.972000    0.000000    0.000000 0 0 1
 O    1.972000    0.000000    3.944000 0 0 1
 O    1.972000    0.000000    7.888000 0 0 1
 O    1.972000    0.000000   11.832000 0 0 1
 O    0.000000    1.972000    0.000000 0 0 1
 O    0.000000    1.972000    3.944000 0 0 1
 O    0.000000    1.972000    7.888000 0 0 1
 O    0.000000    1.972000   11.832000 0 0 1
 O    0.000000    0.000000    1.972000 0 0 1
 O    0.000000    0.000000    5.916000 0 0 1
 O    0.000000    0.000000    9.860000 0 0 1
 O    0.000000    0.000000   13.804000 0 0 1
K_POINTS {automatic}
  6 6 2   1 1 1 
