&CONTROL
                       title = 'YBCO_STO_PBE_from_GBRV' ,
		       restart_mode = 'from_scratch' ,
                 calculation = 'vc-relax' ,
                  wf_collect = .true. ,
                      outdir = '../outdir/' ,
                      wfcdir = '../temp/' ,
                  pseudo_dir = '../pbe/' ,
                      prefix = 'test_1_2' ,
                     disk_io = 'default' ,
                   verbosity = 'default' ,
                      iprint = 10 ,
               etot_conv_thr = 1.0d-6 ,
               forc_conv_thr = 1.0d-6 ,
                       nstep = 100 ,
                     tstress = .false. ,
                     tprnfor = .false. ,
 /
 &SYSTEM
                       ibrav = 8,
                           A = 3.944 ,
                           B = 3.944 ,
                           C = 78.144 , !63.144 + 15
                       cosAB = 0 ,
                       cosAC = 0 ,
                       cosBC = 0 ,
                         nat = 21,
                        ntyp = 6,
                     ecutwfc = 40 ,
                     ecutrho = 200 ,
		     !nbnd = 105 ,
		     occupations = 'smearing' ,
		     degauss = 0.01 ,
 /
 &ELECTRONS
            electron_maxstep = 400,
             diagonalization = 'david' ,
	     mixing_beta = 0.15 ,
	     mixing_mode = 'local-TF' ,
	     mixing_ndim = 8 ,
	     conv_thr = 2e-5 ,
 /
 &IONS
                ion_dynamics = 'damp' ,
               ion_positions = 'default' ,
 /
 &CELL
               cell_dynamics = 'damp-pr' ,
                 cell_factor = 1.5 ,
                 cell_dofree = 'z' ,
 /
ATOMIC_SPECIES
   Ba  137.32700  ba_pbe_v1.uspp.F.UPF 
    Y   88.90585  y_pbe_v1.uspp.F.UPF 
   Cu   63.54600  cu_pbe_v1.uspp.F.UPF 
    O   15.99940  o_pbe_v1.01.uspp.F.UPF 
   Sr   87.62000  sr_pbe_v1.uspp.F.UPF 
   Ti   47.88000  ti_pbe_v1.uspp.F.UPF 
ATOMIC_POSITIONS angstrom
Ba    1.972000    1.972000   25.851088
Ba    1.972000    1.972000   37.693089
Ba    1.972000    1.972000   49.535088
Ba    1.972000    1.972000   61.377087
Ba    1.972000    1.972000   21.516912
Ba    1.972000    1.972000   33.358913
Ba    1.972000    1.972000   45.200912
Ba    1.972000    1.972000   57.042912
 Y    1.972000    1.972000   17.763000
 Y    1.972000    1.972000   29.605000
 Y    1.972000    1.972000   41.446999
 Y    1.972000    1.972000   53.289001
Cu    0.000000    0.000000   23.684000
Cu    0.000000    0.000000   35.526001
Cu    0.000000    0.000000   47.368000
Cu    0.000000    0.000000   59.209999
Cu    0.000000    0.000000   16.037621
Cu    0.000000    0.000000   27.879622
Cu    0.000000    0.000000   39.721622
Cu    0.000000    0.000000   51.563622
Cu    0.000000    0.000000   63.405621
Cu    0.000000    0.000000   19.488379
Cu    0.000000    0.000000   31.330379
Cu    0.000000    0.000000   43.172379
Cu    0.000000    0.000000   55.014378
 O    0.000000    0.000000   25.569246
 O    0.000000    0.000000   37.411247
 O    0.000000    0.000000   49.253250
 O    0.000000    0.000000   61.095249
 O    0.000000    0.000000   21.798754
 O    0.000000    0.000000   33.640755
 O    0.000000    0.000000   45.482754
 O    0.000000    0.000000   57.324753
 O    1.972000    0.000000   16.299328
 O    1.972000    0.000000   28.141329
 O    1.972000    0.000000   39.983330
 O    1.972000    0.000000   51.825329
 O    1.972000    0.000000   63.667328
 O    1.972000    0.000000   19.226671
 O    1.972000    0.000000   31.068672
 O    1.972000    0.000000   42.910671
 O    1.972000    0.000000   54.752670
 O    0.000000    1.972000   16.309986
 O    0.000000    1.972000   28.151987
 O    0.000000    1.972000   39.993988
 O    0.000000    1.972000   51.835983
 O    0.000000    1.972000   63.677982
 O    0.000000    1.972000   19.216013
 O    0.000000    1.972000   31.058014
 O    0.000000    1.972000   42.900013
 O    0.000000    1.972000   54.742012
 O    0.000000    1.972000   23.684000
 O    0.000000    1.972000   35.526001
 O    0.000000    1.972000   47.368000
 O    0.000000    1.972000   59.209999
Sr    1.972000    1.972000    1.972000
Sr    1.972000    1.972000    5.916000
Sr    1.972000    1.972000    9.860000
Sr    1.972000    1.972000   13.804000
Ti    0.000000    0.000000    0.000000
Ti    0.000000    0.000000    3.944000
Ti    0.000000    0.000000    7.888000
Ti    0.000000    0.000000   11.832000
 O    1.972000    0.000000    0.000000
 O    1.972000    0.000000    3.944000
 O    1.972000    0.000000    7.888000
 O    1.972000    0.000000   11.832000
 O    0.000000    1.972000    0.000000
 O    0.000000    1.972000    3.944000
 O    0.000000    1.972000    7.888000
 O    0.000000    1.972000   11.832000
 O    0.000000    0.000000    1.972000
 O    0.000000    0.000000    5.916000
 O    0.000000    0.000000    9.860000
 O    0.000000    0.000000   13.804000
K_POINTS {automatic}
  6 6 2   1 1 1 
