&CONTROL
                       title = '2.YBCO_STO_PBE_from_GBRV' ,
		       restart_mode = 'from_scratch' ,
                 calculation = 'vc-relax' ,
                  wf_collect = .true. ,
                      outdir = '../outdir/' ,
                      wfcdir = '../temp/' ,
                  pseudo_dir = '../pbe/' ,
                      prefix = '2.test_1_2' ,
                     disk_io = 'default' ,
                   verbosity = 'default' ,
                      iprint = 10 ,
               etot_conv_thr = 1.0d-6 ,
               forc_conv_thr = 1.0d-6 ,
                       nstep = 400 ,
                     tstress = .false. ,
                     tprnfor = .false. ,
 /
 &SYSTEM
                       ibrav = 8,
                           A = 3.9298 ,
                           B = 3.9298 ,
                           C = 77.117 , !62.117199 + 15
                       cosAB = 0 ,
                       cosAC = 0 ,
                       cosBC = 0 ,
                         nat = 75,
                        ntyp = 6,
                     ecutwfc = 40 ,
                     ecutrho = 200 ,
		     !nbnd = 105 ,
		     occupations = 'smearing' ,
		     degauss = 0.01 ,
 /
 &ELECTRONS
            electron_maxstep = 400,
             diagonalization = 'david' ,
	     mixing_beta = 0.15 ,
	     mixing_mode = 'local-TF' ,
	     mixing_ndim = 8 ,
	     conv_thr = 2e-5 ,
 /
 &IONS
                ion_dynamics = 'damp' ,
               ion_positions = 'default' ,
 /
 &CELL
               cell_dynamics = 'damp-pr' ,
                 cell_factor = 1.5 ,
                 cell_dofree = 'z' ,
 /
ATOMIC_SPECIES
   Ba  137.32700  ba_pbe_v1.uspp.F.UPF 
    Y   88.90585  y_pbe_v1.uspp.F.UPF 
   Cu   63.54600  cu_pbe_v1.uspp.F.UPF 
    O   15.99940  o_pbe_v1.01.uspp.F.UPF 
   Sr   87.62000  sr_pbe_v1.uspp.F.UPF 
   Ti   47.88000  ti_pbe_v1.uspp.F.UPF 
ATOMIC_POSITIONS angstrom
Sr    1.964900    1.964900    1.949500  0  0  1
Sr    1.964900    1.964900    5.848500  0  0  1
Sr    1.964900    1.964900    9.747499  0  0  1
Sr    1.964900    1.964900   13.646500  0  0  1
Ti    0.000000    0.000000    0.000000  0  0  1
Ti    0.000000    0.000000   15.596000  0  0  1
Ti    0.000000    0.000000    3.899000  0  0  1
Ti    0.000000    0.000000    7.798000  0  0  1
Ti    0.000000    0.000000   11.697000  0  0  1
 O    1.964900    0.000000    0.000000  0  0  1
 O    1.964900    0.000000   15.596000  0  0  1
 O    1.964900    0.000000    3.899000  0  0  1
 O    1.964900    0.000000    7.798000  0  0  1
 O    1.964900    0.000000   11.697000  0  0  1
 O    0.000000    1.964900    0.000000  0  0  1
 O    0.000000    1.964900   15.596000  0  0  1
 O    0.000000    1.964900    3.899000  0  0  1
 O    0.000000    1.964900    7.798000  0  0  1
 O    0.000000    1.964900   11.697000  0  0  1
 O    0.000000    0.000000    1.949500  0  0  1
 O    0.000000    0.000000    5.848500  0  0  1
 O    0.000000    0.000000    9.747499  0  0  1
 O    0.000000    0.000000   13.646500  0  0  1
Ba    1.964900    1.964900   17.724344  0  0  1
Ba    1.964900    1.964900   29.354643  0  0  1
Ba    1.964900    1.964900   40.984943  0  0  1
Ba    1.964900    1.964900   52.615246  0  0  1
Ba    1.964900    1.964900   25.097954  0  0  1
Ba    1.964900    1.964900   36.728256  0  0  1
Ba    1.964900    1.964900   48.358551  0  0  1
Ba    1.964900    1.964900   59.988853  0  0  1
 Y    1.964900    1.964900   21.411150  0  0  1
 Y    1.964900    1.964900   33.041451  0  0  1
 Y    1.964900    1.964900   44.671749  0  0  1
 Y    1.964900    1.964900   56.302048  0  0  1
Cu    0.000000    0.000000   62.117199  0  0  1
Cu    0.000000    0.000000   27.226299  0  0  1
Cu    0.000000    0.000000   38.856598  0  0  1
Cu    0.000000    0.000000   50.486900  0  0  1
Cu    0.000000    0.000000   19.716616  0  0  1
Cu    0.000000    0.000000   31.346914  0  0  1
Cu    0.000000    0.000000   42.977215  0  0  1
Cu    0.000000    0.000000   54.607513  0  0  1
Cu    0.000000    0.000000   23.105684  0  0  1
Cu    0.000000    0.000000   34.735985  0  0  1
Cu    0.000000    0.000000   46.366283  0  0  1
Cu    0.000000    0.000000   57.996582  0  0  1
 O    0.000000    0.000000   17.447544  0  0  1
 O    0.000000    0.000000   29.077843  0  0  1
 O    0.000000    0.000000   40.708141  0  0  1
 O    0.000000    0.000000   52.338440  0  0  1
 O    0.000000    0.000000   25.374756  0  0  1
 O    0.000000    0.000000   37.005054  0  0  1
 O    0.000000    0.000000   48.635357  0  0  1
 O    0.000000    0.000000   60.265656  0  0  1
 O    1.964900    0.000000   19.973644  0  0  1
 O    1.964900    0.000000   31.603945  0  0  1
 O    1.964900    0.000000   43.234245  0  0  1
 O    1.964900    0.000000   54.864544  0  0  1
 O    1.964900    0.000000   22.848654  0  0  1
 O    1.964900    0.000000   34.478954  0  0  1
 O    1.964900    0.000000   46.109253  0  0  1
 O    1.964900    0.000000   57.739552  0  0  1
 O    0.000000    1.964900   19.984112  0  0  1
 O    0.000000    1.964900   31.614412  0  0  1
 O    0.000000    1.964900   43.244713  0  0  1
 O    0.000000    1.964900   54.875011  0  0  1
 O    0.000000    1.964900   22.838186  0  0  1
 O    0.000000    1.964900   34.468487  0  0  1
 O    0.000000    1.964900   46.098785  0  0  1
 O    0.000000    1.964900   57.729084  0  0  1
 O    0.000000    1.964900   62.117199  0  0  1
 O    0.000000    1.964900   27.226299  0  0  1
 O    0.000000    1.964900   38.856598  0  0  1
 O    0.000000    1.964900   50.486900  0  0  1
K_POINTS {automatic}
  6 6 2   1 1 1 
